p cnf 281 951
c p weight -111 1 0
c p weight 111 -1 0
c p weight 115 6.12323399573676603586882014729198302312846062338790031898128063403419218957424163818359375E-17 0
c p weight -115 1 0
c p weight 116 1 0
c p weight -116 1 0
c p weight -113 1 0
c p weight 113 -1 0
c p weight -117 1 0
c p weight 117 -1 0
c p weight -119 1 0
c p weight 119 -1 0
c p weight -122 1 0
c p weight 122 -1 0
c p weight -125 1 0
c p weight 125 -1 0
c p weight -128 1 0
c p weight 128 -1 0
c p weight -131 1 0
c p weight 131 -1 0
c p weight -134 1 0
c p weight 134 -1 0
c p weight -137 1 0
c p weight 137 -1 0
c p weight -140 1 0
c p weight 140 -1 0
c p weight -143 1 0
c p weight 143 -1 0
c p weight -146 1 0
c p weight 146 -1 0
c p weight -149 1 0
c p weight 149 -1 0
c p weight -152 1 0
c p weight 152 -1 0
c p weight -155 1 0
c p weight 155 -1 0
c p weight -158 1 0
c p weight 158 -1 0
c p weight -161 1 0
c p weight 161 -1 0
c p weight -164 1 0
c p weight 164 -1 0
c p weight -167 1 0
c p weight 167 -1 0
c p weight -170 1 0
c p weight 170 -1 0
c p weight -173 1 0
c p weight 173 -1 0
c p weight -176 1 0
c p weight 176 -1 0
c p weight -179 1 0
c p weight 179 -1 0
c p weight -182 1 0
c p weight 182 -1 0
c p weight -185 1 0
c p weight 185 -1 0
c p weight -188 1 0
c p weight 188 -1 0
c p weight -191 1 0
c p weight 191 -1 0
c p weight -194 1 0
c p weight 194 -1 0
c p weight -197 1 0
c p weight 197 -1 0
c p weight -200 1 0
c p weight 200 -1 0
c p weight -203 1 0
c p weight 203 -1 0
c p weight -206 1 0
c p weight 206 -1 0
c p weight -209 1 0
c p weight 209 -1 0
c p weight -212 1 0
c p weight 212 -1 0
c p weight -215 1 0
c p weight 215 -1 0
c p weight -218 1 0
c p weight 218 -1 0
c p weight -221 1 0
c p weight 221 -1 0
c p weight -224 1 0
c p weight 224 -1 0
c p weight -227 1 0
c p weight 227 -1 0
c p weight -230 1 0
c p weight 230 -1 0
c p weight -233 1 0
c p weight 233 -1 0
c p weight -236 1 0
c p weight 236 -1 0
c p weight -239 1 0
c p weight 239 -1 0
c p weight -242 1 0
c p weight 242 -1 0
c p weight -245 1 0
c p weight 245 -1 0
c p weight -248 1 0
c p weight 248 -1 0
c p weight -251 1 0
c p weight 251 -1 0
c p weight -254 1 0
c p weight 254 -1 0
c p weight -257 1 0
c p weight 257 -1 0
c p weight -260 1 0
c p weight 260 -1 0
c p weight -263 1 0
c p weight 263 -1 0
c p weight -266 1 0
c p weight 266 -1 0
c p weight -269 1 0
c p weight 269 -1 0
c p weight -272 1 0
c p weight 272 -1 0
c p weight -275 1 0
c p weight 275 -1 0
c p weight -278 1 0
c p weight 278 -1 0
c p weight 281 0.5 0
c p weight -281 1 0
281 0
-109 0
-107 0
-105 0
-103 0
-101 0
-99 0
-97 0
-95 0
-93 0
-91 0
-89 0
-87 0
-85 0
-83 0
-81 0
-79 0
-77 0
-75 0
-73 0
-71 0
-69 0
-67 0
-65 0
-63 0
-61 0
-59 0
-57 0
-55 0
-53 0
-51 0
-49 0
-47 0
-45 0
-43 0
-41 0
-39 0
-37 0
-35 0
-33 0
-31 0
-29 0
-27 0
-25 0
-23 0
-21 0
-19 0
-17 0
-15 0
-13 0
-11 0
-9 0
-7 0
-5 0
-3 0
-1 0
-111 109 0
-111 110 0
111 -109 -110 0
112 109 -110 0
112 -109 110 0
-112 109 110 0
-112 -109 -110 0
-113 114 0
-113 112 0
-113 -109 0
113 -114 109 -112 0
114 -109 112 0
-114 109 112 0
-115 112 0
114 -115 -109 0
-114 -115 109 0
114 115 109 -112 0
-114 115 -109 -112 0
-116 112 0
114 -116 109 0
-114 -116 -109 0
114 116 -109 -112 0
-114 116 109 -112 0
-117 114 0
-117 112 0
117 -114 -112 0
118 114 -112 0
118 -114 112 0
-118 114 112 0
-118 -114 -112 0
-119 114 0
-119 108 0
-119 107 -118 0
-119 -107 118 0
119 -114 107 118 -108 0
119 -114 -107 -118 -108 0
121 114 -107 0
121 -114 107 0
-121 114 107 0
-121 -114 -107 0
120 118 -108 0
120 -118 108 0
-120 118 108 0
-120 -118 -108 0
-122 121 0
-122 106 0
-122 105 -108 0
-122 -105 108 0
122 -121 105 108 -106 0
122 -121 -105 -108 -106 0
124 121 -105 0
124 -121 105 0
-124 121 105 0
-124 -121 -105 0
123 108 -106 0
123 -108 106 0
-123 108 106 0
-123 -108 -106 0
-125 124 0
-125 104 0
-125 103 -106 0
-125 -103 106 0
125 -124 103 106 -104 0
125 -124 -103 -106 -104 0
127 124 -103 0
127 -124 103 0
-127 124 103 0
-127 -124 -103 0
126 106 -104 0
126 -106 104 0
-126 106 104 0
-126 -106 -104 0
-128 127 0
-128 102 0
-128 101 -104 0
-128 -101 104 0
128 -127 101 104 -102 0
128 -127 -101 -104 -102 0
130 127 -101 0
130 -127 101 0
-130 127 101 0
-130 -127 -101 0
129 104 -102 0
129 -104 102 0
-129 104 102 0
-129 -104 -102 0
-131 130 0
-131 100 0
-131 99 -102 0
-131 -99 102 0
131 -130 99 102 -100 0
131 -130 -99 -102 -100 0
133 130 -99 0
133 -130 99 0
-133 130 99 0
-133 -130 -99 0
132 102 -100 0
132 -102 100 0
-132 102 100 0
-132 -102 -100 0
-134 133 0
-134 98 0
-134 97 -100 0
-134 -97 100 0
134 -133 97 100 -98 0
134 -133 -97 -100 -98 0
136 133 -97 0
136 -133 97 0
-136 133 97 0
-136 -133 -97 0
135 100 -98 0
135 -100 98 0
-135 100 98 0
-135 -100 -98 0
-137 136 0
-137 96 0
-137 95 -98 0
-137 -95 98 0
137 -136 95 98 -96 0
137 -136 -95 -98 -96 0
139 136 -95 0
139 -136 95 0
-139 136 95 0
-139 -136 -95 0
138 98 -96 0
138 -98 96 0
-138 98 96 0
-138 -98 -96 0
-140 139 0
-140 94 0
-140 93 -96 0
-140 -93 96 0
140 -139 93 96 -94 0
140 -139 -93 -96 -94 0
142 139 -93 0
142 -139 93 0
-142 139 93 0
-142 -139 -93 0
141 96 -94 0
141 -96 94 0
-141 96 94 0
-141 -96 -94 0
-143 142 0
-143 92 0
-143 91 -94 0
-143 -91 94 0
143 -142 91 94 -92 0
143 -142 -91 -94 -92 0
145 142 -91 0
145 -142 91 0
-145 142 91 0
-145 -142 -91 0
144 94 -92 0
144 -94 92 0
-144 94 92 0
-144 -94 -92 0
-146 145 0
-146 90 0
-146 89 -92 0
-146 -89 92 0
146 -145 89 92 -90 0
146 -145 -89 -92 -90 0
148 145 -89 0
148 -145 89 0
-148 145 89 0
-148 -145 -89 0
147 92 -90 0
147 -92 90 0
-147 92 90 0
-147 -92 -90 0
-149 148 0
-149 88 0
-149 87 -90 0
-149 -87 90 0
149 -148 87 90 -88 0
149 -148 -87 -90 -88 0
151 148 -87 0
151 -148 87 0
-151 148 87 0
-151 -148 -87 0
150 90 -88 0
150 -90 88 0
-150 90 88 0
-150 -90 -88 0
-152 151 0
-152 86 0
-152 85 -88 0
-152 -85 88 0
152 -151 85 88 -86 0
152 -151 -85 -88 -86 0
154 151 -85 0
154 -151 85 0
-154 151 85 0
-154 -151 -85 0
153 88 -86 0
153 -88 86 0
-153 88 86 0
-153 -88 -86 0
-155 154 0
-155 84 0
-155 83 -86 0
-155 -83 86 0
155 -154 83 86 -84 0
155 -154 -83 -86 -84 0
157 154 -83 0
157 -154 83 0
-157 154 83 0
-157 -154 -83 0
156 86 -84 0
156 -86 84 0
-156 86 84 0
-156 -86 -84 0
-158 157 0
-158 82 0
-158 81 -84 0
-158 -81 84 0
158 -157 81 84 -82 0
158 -157 -81 -84 -82 0
160 157 -81 0
160 -157 81 0
-160 157 81 0
-160 -157 -81 0
159 84 -82 0
159 -84 82 0
-159 84 82 0
-159 -84 -82 0
-161 160 0
-161 80 0
-161 79 -82 0
-161 -79 82 0
161 -160 79 82 -80 0
161 -160 -79 -82 -80 0
163 160 -79 0
163 -160 79 0
-163 160 79 0
-163 -160 -79 0
162 82 -80 0
162 -82 80 0
-162 82 80 0
-162 -82 -80 0
-164 163 0
-164 78 0
-164 77 -80 0
-164 -77 80 0
164 -163 77 80 -78 0
164 -163 -77 -80 -78 0
166 163 -77 0
166 -163 77 0
-166 163 77 0
-166 -163 -77 0
165 80 -78 0
165 -80 78 0
-165 80 78 0
-165 -80 -78 0
-167 166 0
-167 76 0
-167 75 -78 0
-167 -75 78 0
167 -166 75 78 -76 0
167 -166 -75 -78 -76 0
169 166 -75 0
169 -166 75 0
-169 166 75 0
-169 -166 -75 0
168 78 -76 0
168 -78 76 0
-168 78 76 0
-168 -78 -76 0
-170 169 0
-170 74 0
-170 73 -76 0
-170 -73 76 0
170 -169 73 76 -74 0
170 -169 -73 -76 -74 0
172 169 -73 0
172 -169 73 0
-172 169 73 0
-172 -169 -73 0
171 76 -74 0
171 -76 74 0
-171 76 74 0
-171 -76 -74 0
-173 172 0
-173 72 0
-173 71 -74 0
-173 -71 74 0
173 -172 71 74 -72 0
173 -172 -71 -74 -72 0
175 172 -71 0
175 -172 71 0
-175 172 71 0
-175 -172 -71 0
174 74 -72 0
174 -74 72 0
-174 74 72 0
-174 -74 -72 0
-176 175 0
-176 70 0
-176 69 -72 0
-176 -69 72 0
176 -175 69 72 -70 0
176 -175 -69 -72 -70 0
178 175 -69 0
178 -175 69 0
-178 175 69 0
-178 -175 -69 0
177 72 -70 0
177 -72 70 0
-177 72 70 0
-177 -72 -70 0
-179 178 0
-179 68 0
-179 67 -70 0
-179 -67 70 0
179 -178 67 70 -68 0
179 -178 -67 -70 -68 0
181 178 -67 0
181 -178 67 0
-181 178 67 0
-181 -178 -67 0
180 70 -68 0
180 -70 68 0
-180 70 68 0
-180 -70 -68 0
-182 181 0
-182 66 0
-182 65 -68 0
-182 -65 68 0
182 -181 65 68 -66 0
182 -181 -65 -68 -66 0
184 181 -65 0
184 -181 65 0
-184 181 65 0
-184 -181 -65 0
183 68 -66 0
183 -68 66 0
-183 68 66 0
-183 -68 -66 0
-185 184 0
-185 64 0
-185 63 -66 0
-185 -63 66 0
185 -184 63 66 -64 0
185 -184 -63 -66 -64 0
187 184 -63 0
187 -184 63 0
-187 184 63 0
-187 -184 -63 0
186 66 -64 0
186 -66 64 0
-186 66 64 0
-186 -66 -64 0
-188 187 0
-188 62 0
-188 61 -64 0
-188 -61 64 0
188 -187 61 64 -62 0
188 -187 -61 -64 -62 0
190 187 -61 0
190 -187 61 0
-190 187 61 0
-190 -187 -61 0
189 64 -62 0
189 -64 62 0
-189 64 62 0
-189 -64 -62 0
-191 190 0
-191 60 0
-191 59 -62 0
-191 -59 62 0
191 -190 59 62 -60 0
191 -190 -59 -62 -60 0
193 190 -59 0
193 -190 59 0
-193 190 59 0
-193 -190 -59 0
192 62 -60 0
192 -62 60 0
-192 62 60 0
-192 -62 -60 0
-194 193 0
-194 58 0
-194 57 -60 0
-194 -57 60 0
194 -193 57 60 -58 0
194 -193 -57 -60 -58 0
196 193 -57 0
196 -193 57 0
-196 193 57 0
-196 -193 -57 0
195 60 -58 0
195 -60 58 0
-195 60 58 0
-195 -60 -58 0
-197 196 0
-197 56 0
-197 55 -58 0
-197 -55 58 0
197 -196 55 58 -56 0
197 -196 -55 -58 -56 0
199 196 -55 0
199 -196 55 0
-199 196 55 0
-199 -196 -55 0
198 58 -56 0
198 -58 56 0
-198 58 56 0
-198 -58 -56 0
-200 199 0
-200 54 0
-200 53 -56 0
-200 -53 56 0
200 -199 53 56 -54 0
200 -199 -53 -56 -54 0
202 199 -53 0
202 -199 53 0
-202 199 53 0
-202 -199 -53 0
201 56 -54 0
201 -56 54 0
-201 56 54 0
-201 -56 -54 0
-203 202 0
-203 52 0
-203 51 -54 0
-203 -51 54 0
203 -202 51 54 -52 0
203 -202 -51 -54 -52 0
205 202 -51 0
205 -202 51 0
-205 202 51 0
-205 -202 -51 0
204 54 -52 0
204 -54 52 0
-204 54 52 0
-204 -54 -52 0
-206 205 0
-206 50 0
-206 49 -52 0
-206 -49 52 0
206 -205 49 52 -50 0
206 -205 -49 -52 -50 0
208 205 -49 0
208 -205 49 0
-208 205 49 0
-208 -205 -49 0
207 52 -50 0
207 -52 50 0
-207 52 50 0
-207 -52 -50 0
-209 208 0
-209 48 0
-209 47 -50 0
-209 -47 50 0
209 -208 47 50 -48 0
209 -208 -47 -50 -48 0
211 208 -47 0
211 -208 47 0
-211 208 47 0
-211 -208 -47 0
210 50 -48 0
210 -50 48 0
-210 50 48 0
-210 -50 -48 0
-212 211 0
-212 46 0
-212 45 -48 0
-212 -45 48 0
212 -211 45 48 -46 0
212 -211 -45 -48 -46 0
214 211 -45 0
214 -211 45 0
-214 211 45 0
-214 -211 -45 0
213 48 -46 0
213 -48 46 0
-213 48 46 0
-213 -48 -46 0
-215 214 0
-215 44 0
-215 43 -46 0
-215 -43 46 0
215 -214 43 46 -44 0
215 -214 -43 -46 -44 0
217 214 -43 0
217 -214 43 0
-217 214 43 0
-217 -214 -43 0
216 46 -44 0
216 -46 44 0
-216 46 44 0
-216 -46 -44 0
-218 217 0
-218 42 0
-218 41 -44 0
-218 -41 44 0
218 -217 41 44 -42 0
218 -217 -41 -44 -42 0
220 217 -41 0
220 -217 41 0
-220 217 41 0
-220 -217 -41 0
219 44 -42 0
219 -44 42 0
-219 44 42 0
-219 -44 -42 0
-221 220 0
-221 40 0
-221 39 -42 0
-221 -39 42 0
221 -220 39 42 -40 0
221 -220 -39 -42 -40 0
223 220 -39 0
223 -220 39 0
-223 220 39 0
-223 -220 -39 0
222 42 -40 0
222 -42 40 0
-222 42 40 0
-222 -42 -40 0
-224 223 0
-224 38 0
-224 37 -40 0
-224 -37 40 0
224 -223 37 40 -38 0
224 -223 -37 -40 -38 0
226 223 -37 0
226 -223 37 0
-226 223 37 0
-226 -223 -37 0
225 40 -38 0
225 -40 38 0
-225 40 38 0
-225 -40 -38 0
-227 226 0
-227 36 0
-227 35 -38 0
-227 -35 38 0
227 -226 35 38 -36 0
227 -226 -35 -38 -36 0
229 226 -35 0
229 -226 35 0
-229 226 35 0
-229 -226 -35 0
228 38 -36 0
228 -38 36 0
-228 38 36 0
-228 -38 -36 0
-230 229 0
-230 34 0
-230 33 -36 0
-230 -33 36 0
230 -229 33 36 -34 0
230 -229 -33 -36 -34 0
232 229 -33 0
232 -229 33 0
-232 229 33 0
-232 -229 -33 0
231 36 -34 0
231 -36 34 0
-231 36 34 0
-231 -36 -34 0
-233 232 0
-233 32 0
-233 31 -34 0
-233 -31 34 0
233 -232 31 34 -32 0
233 -232 -31 -34 -32 0
235 232 -31 0
235 -232 31 0
-235 232 31 0
-235 -232 -31 0
234 34 -32 0
234 -34 32 0
-234 34 32 0
-234 -34 -32 0
-236 235 0
-236 30 0
-236 29 -32 0
-236 -29 32 0
236 -235 29 32 -30 0
236 -235 -29 -32 -30 0
238 235 -29 0
238 -235 29 0
-238 235 29 0
-238 -235 -29 0
237 32 -30 0
237 -32 30 0
-237 32 30 0
-237 -32 -30 0
-239 238 0
-239 28 0
-239 27 -30 0
-239 -27 30 0
239 -238 27 30 -28 0
239 -238 -27 -30 -28 0
241 238 -27 0
241 -238 27 0
-241 238 27 0
-241 -238 -27 0
240 30 -28 0
240 -30 28 0
-240 30 28 0
-240 -30 -28 0
-242 241 0
-242 26 0
-242 25 -28 0
-242 -25 28 0
242 -241 25 28 -26 0
242 -241 -25 -28 -26 0
244 241 -25 0
244 -241 25 0
-244 241 25 0
-244 -241 -25 0
243 28 -26 0
243 -28 26 0
-243 28 26 0
-243 -28 -26 0
-245 244 0
-245 24 0
-245 23 -26 0
-245 -23 26 0
245 -244 23 26 -24 0
245 -244 -23 -26 -24 0
247 244 -23 0
247 -244 23 0
-247 244 23 0
-247 -244 -23 0
246 26 -24 0
246 -26 24 0
-246 26 24 0
-246 -26 -24 0
-248 247 0
-248 22 0
-248 21 -24 0
-248 -21 24 0
248 -247 21 24 -22 0
248 -247 -21 -24 -22 0
250 247 -21 0
250 -247 21 0
-250 247 21 0
-250 -247 -21 0
249 24 -22 0
249 -24 22 0
-249 24 22 0
-249 -24 -22 0
-251 250 0
-251 20 0
-251 19 -22 0
-251 -19 22 0
251 -250 19 22 -20 0
251 -250 -19 -22 -20 0
253 250 -19 0
253 -250 19 0
-253 250 19 0
-253 -250 -19 0
252 22 -20 0
252 -22 20 0
-252 22 20 0
-252 -22 -20 0
-254 253 0
-254 18 0
-254 17 -20 0
-254 -17 20 0
254 -253 17 20 -18 0
254 -253 -17 -20 -18 0
256 253 -17 0
256 -253 17 0
-256 253 17 0
-256 -253 -17 0
255 20 -18 0
255 -20 18 0
-255 20 18 0
-255 -20 -18 0
-257 256 0
-257 16 0
-257 15 -18 0
-257 -15 18 0
257 -256 15 18 -16 0
257 -256 -15 -18 -16 0
259 256 -15 0
259 -256 15 0
-259 256 15 0
-259 -256 -15 0
258 18 -16 0
258 -18 16 0
-258 18 16 0
-258 -18 -16 0
-260 259 0
-260 14 0
-260 13 -16 0
-260 -13 16 0
260 -259 13 16 -14 0
260 -259 -13 -16 -14 0
262 259 -13 0
262 -259 13 0
-262 259 13 0
-262 -259 -13 0
261 16 -14 0
261 -16 14 0
-261 16 14 0
-261 -16 -14 0
-263 262 0
-263 12 0
-263 11 -14 0
-263 -11 14 0
263 -262 11 14 -12 0
263 -262 -11 -14 -12 0
265 262 -11 0
265 -262 11 0
-265 262 11 0
-265 -262 -11 0
264 14 -12 0
264 -14 12 0
-264 14 12 0
-264 -14 -12 0
-266 265 0
-266 10 0
-266 9 -12 0
-266 -9 12 0
266 -265 9 12 -10 0
266 -265 -9 -12 -10 0
268 265 -9 0
268 -265 9 0
-268 265 9 0
-268 -265 -9 0
267 12 -10 0
267 -12 10 0
-267 12 10 0
-267 -12 -10 0
-269 268 0
-269 8 0
-269 7 -10 0
-269 -7 10 0
269 -268 7 10 -8 0
269 -268 -7 -10 -8 0
271 268 -7 0
271 -268 7 0
-271 268 7 0
-271 -268 -7 0
270 10 -8 0
270 -10 8 0
-270 10 8 0
-270 -10 -8 0
-272 271 0
-272 6 0
-272 5 -8 0
-272 -5 8 0
272 -271 5 8 -6 0
272 -271 -5 -8 -6 0
274 271 -5 0
274 -271 5 0
-274 271 5 0
-274 -271 -5 0
273 8 -6 0
273 -8 6 0
-273 8 6 0
-273 -8 -6 0
-275 274 0
-275 4 0
-275 3 -6 0
-275 -3 6 0
275 -274 3 6 -4 0
275 -274 -3 -6 -4 0
277 274 -3 0
277 -274 3 0
-277 274 3 0
-277 -274 -3 0
276 6 -4 0
276 -6 4 0
-276 6 4 0
-276 -6 -4 0
-278 277 0
-278 2 0
-278 1 -4 0
-278 -1 4 0
278 -277 1 4 -2 0
278 -277 -1 -4 -2 0
280 277 -1 0
280 -277 1 0
-280 277 1 0
-280 -277 -1 0
279 4 -2 0
279 -4 2 0
-279 4 2 0
-279 -4 -2 0
-280 0
-277 0
-279 0
-274 0
-276 0
-271 0
-273 0
-268 0
-270 0
-265 0
-267 0
-262 0
-264 0
-259 0
-261 0
-256 0
-258 0
-253 0
-255 0
-250 0
-252 0
-247 0
-249 0
-244 0
-246 0
-241 0
-243 0
-238 0
-240 0
-235 0
-237 0
-232 0
-234 0
-229 0
-231 0
-226 0
-228 0
-223 0
-225 0
-220 0
-222 0
-217 0
-219 0
-214 0
-216 0
-211 0
-213 0
-208 0
-210 0
-205 0
-207 0
-202 0
-204 0
-199 0
-201 0
-196 0
-198 0
-193 0
-195 0
-190 0
-192 0
-187 0
-189 0
-184 0
-186 0
-181 0
-183 0
-178 0
-180 0
-175 0
-177 0
-172 0
-174 0
-169 0
-171 0
-166 0
-168 0
-163 0
-165 0
-160 0
-162 0
-157 0
-159 0
-154 0
-156 0
-151 0
-153 0
-148 0
-150 0
-145 0
-147 0
-142 0
-144 0
-139 0
-141 0
-136 0
-138 0
-133 0
-135 0
-130 0
-132 0
-127 0
-129 0
-124 0
-126 0
-121 0
-123 0
-114 0
-120 0
